Minimize
 obj: 0 X_0_1
Subject To
 out_0:
  + 1 X_0_1 + 1 X_0_2 + 1 X_0_3 + 1 X_0_4 + 1 X_0_5 + 1 X_0_6 + 1 X_0_7 + 1 X_0_8
  + 1 X_0_9 + 1 X_0_10 + 1 X_0_11 + 1 X_0_12 + 1 X_0_13 + 1 X_0_14
  = 1
 in_0:
  + 1 X_1_0 + 1 X_2_0 + 1 X_3_0 + 1 X_4_0 + 1 X_5_0 + 1 X_6_0 + 1 X_7_0 + 1 X_8_0
  + 1 X_9_0 + 1 X_10_0 + 1 X_11_0 + 1 X_12_0 + 1 X_13_0 + 1 X_14_0
  = 1
 out_1:
  + 1 X_1_0 + 1 X_1_2 + 1 X_1_3 + 1 X_1_4 + 1 X_1_5 + 1 X_1_6 + 1 X_1_7 + 1 X_1_8
  + 1 X_1_9 + 1 X_1_10 + 1 X_1_11 + 1 X_1_12 + 1 X_1_13 + 1 X_1_14
  = 1
 in_1:
  + 1 X_0_1 + 1 X_2_1 + 1 X_3_1 + 1 X_4_1 + 1 X_5_1 + 1 X_6_1 + 1 X_7_1 + 1 X_8_1
  + 1 X_9_1 + 1 X_10_1 + 1 X_11_1 + 1 X_12_1 + 1 X_13_1 + 1 X_14_1
  = 1
 out_2:
  + 1 X_2_0 + 1 X_2_1 + 1 X_2_3 + 1 X_2_4 + 1 X_2_5 + 1 X_2_6 + 1 X_2_7 + 1 X_2_8
  + 1 X_2_9 + 1 X_2_10 + 1 X_2_11 + 1 X_2_12 + 1 X_2_13 + 1 X_2_14
  = 1
 in_2:
  + 1 X_0_2 + 1 X_1_2 + 1 X_3_2 + 1 X_4_2 + 1 X_5_2 + 1 X_6_2 + 1 X_7_2 + 1 X_8_2
  + 1 X_9_2 + 1 X_10_2 + 1 X_11_2 + 1 X_12_2 + 1 X_13_2 + 1 X_14_2
  = 1
 out_3:
  + 1 X_3_0 + 1 X_3_1 + 1 X_3_2 + 1 X_3_4 + 1 X_3_5 + 1 X_3_6 + 1 X_3_7 + 1 X_3_8
  + 1 X_3_9 + 1 X_3_10 + 1 X_3_11 + 1 X_3_12 + 1 X_3_13 + 1 X_3_14
  = 1
 in_3:
  + 1 X_0_3 + 1 X_1_3 + 1 X_2_3 + 1 X_4_3 + 1 X_5_3 + 1 X_6_3 + 1 X_7_3 + 1 X_8_3
  + 1 X_9_3 + 1 X_10_3 + 1 X_11_3 + 1 X_12_3 + 1 X_13_3 + 1 X_14_3
  = 1
 out_4:
  + 1 X_4_0 + 1 X_4_1 + 1 X_4_2 + 1 X_4_3 + 1 X_4_5 + 1 X_4_6 + 1 X_4_7 + 1 X_4_8
  + 1 X_4_9 + 1 X_4_10 + 1 X_4_11 + 1 X_4_12 + 1 X_4_13 + 1 X_4_14
  = 1
 in_4:
  + 1 X_0_4 + 1 X_1_4 + 1 X_2_4 + 1 X_3_4 + 1 X_5_4 + 1 X_6_4 + 1 X_7_4 + 1 X_8_4
  + 1 X_9_4 + 1 X_10_4 + 1 X_11_4 + 1 X_12_4 + 1 X_13_4 + 1 X_14_4
  = 1
 out_5:
  + 1 X_5_0 + 1 X_5_1 + 1 X_5_2 + 1 X_5_3 + 1 X_5_4 + 1 X_5_6 + 1 X_5_7 + 1 X_5_8
  + 1 X_5_9 + 1 X_5_10 + 1 X_5_11 + 1 X_5_12 + 1 X_5_13 + 1 X_5_14
  = 1
 in_5:
  + 1 X_0_5 + 1 X_1_5 + 1 X_2_5 + 1 X_3_5 + 1 X_4_5 + 1 X_6_5 + 1 X_7_5 + 1 X_8_5
  + 1 X_9_5 + 1 X_10_5 + 1 X_11_5 + 1 X_12_5 + 1 X_13_5 + 1 X_14_5
  = 1
 out_6:
  + 1 X_6_0 + 1 X_6_1 + 1 X_6_2 + 1 X_6_3 + 1 X_6_4 + 1 X_6_5 + 1 X_6_7 + 1 X_6_8
  + 1 X_6_9 + 1 X_6_10 + 1 X_6_11 + 1 X_6_12 + 1 X_6_13 + 1 X_6_14
  = 1
 in_6:
  + 1 X_0_6 + 1 X_1_6 + 1 X_2_6 + 1 X_3_6 + 1 X_4_6 + 1 X_5_6 + 1 X_7_6 + 1 X_8_6
  + 1 X_9_6 + 1 X_10_6 + 1 X_11_6 + 1 X_12_6 + 1 X_13_6 + 1 X_14_6
  = 1
 out_7:
  + 1 X_7_0 + 1 X_7_1 + 1 X_7_2 + 1 X_7_3 + 1 X_7_4 + 1 X_7_5 + 1 X_7_6 + 1 X_7_8
  + 1 X_7_9 + 1 X_7_10 + 1 X_7_11 + 1 X_7_12 + 1 X_7_13 + 1 X_7_14
  = 1
 in_7:
  + 1 X_0_7 + 1 X_1_7 + 1 X_2_7 + 1 X_3_7 + 1 X_4_7 + 1 X_5_7 + 1 X_6_7 + 1 X_8_7
  + 1 X_9_7 + 1 X_10_7 + 1 X_11_7 + 1 X_12_7 + 1 X_13_7 + 1 X_14_7
  = 1
 out_8:
  + 1 X_8_0 + 1 X_8_1 + 1 X_8_2 + 1 X_8_3 + 1 X_8_4 + 1 X_8_5 + 1 X_8_6 + 1 X_8_7
  + 1 X_8_9 + 1 X_8_10 + 1 X_8_11 + 1 X_8_12 + 1 X_8_13 + 1 X_8_14
  = 1
 in_8:
  + 1 X_0_8 + 1 X_1_8 + 1 X_2_8 + 1 X_3_8 + 1 X_4_8 + 1 X_5_8 + 1 X_6_8 + 1 X_7_8
  + 1 X_9_8 + 1 X_10_8 + 1 X_11_8 + 1 X_12_8 + 1 X_13_8 + 1 X_14_8
  = 1
 out_9:
  + 1 X_9_0 + 1 X_9_1 + 1 X_9_2 + 1 X_9_3 + 1 X_9_4 + 1 X_9_5 + 1 X_9_6 + 1 X_9_7
  + 1 X_9_8 + 1 X_9_10 + 1 X_9_11 + 1 X_9_12 + 1 X_9_13 + 1 X_9_14
  = 1
 in_9:
  + 1 X_0_9 + 1 X_1_9 + 1 X_2_9 + 1 X_3_9 + 1 X_4_9 + 1 X_5_9 + 1 X_6_9 + 1 X_7_9
  + 1 X_8_9 + 1 X_10_9 + 1 X_11_9 + 1 X_12_9 + 1 X_13_9 + 1 X_14_9
  = 1
 out_10:
  + 1 X_10_0 + 1 X_10_1 + 1 X_10_2 + 1 X_10_3 + 1 X_10_4 + 1 X_10_5 + 1 X_10_6 + 1 X_10_7
  + 1 X_10_8 + 1 X_10_9 + 1 X_10_11 + 1 X_10_12 + 1 X_10_13 + 1 X_10_14
  = 1
 in_10:
  + 1 X_0_10 + 1 X_1_10 + 1 X_2_10 + 1 X_3_10 + 1 X_4_10 + 1 X_5_10 + 1 X_6_10 + 1 X_7_10
  + 1 X_8_10 + 1 X_9_10 + 1 X_11_10 + 1 X_12_10 + 1 X_13_10 + 1 X_14_10
  = 1
 out_11:
  + 1 X_11_0 + 1 X_11_1 + 1 X_11_2 + 1 X_11_3 + 1 X_11_4 + 1 X_11_5 + 1 X_11_6 + 1 X_11_7
  + 1 X_11_8 + 1 X_11_9 + 1 X_11_10 + 1 X_11_12 + 1 X_11_13 + 1 X_11_14
  = 1
 in_11:
  + 1 X_0_11 + 1 X_1_11 + 1 X_2_11 + 1 X_3_11 + 1 X_4_11 + 1 X_5_11 + 1 X_6_11 + 1 X_7_11
  + 1 X_8_11 + 1 X_9_11 + 1 X_10_11 + 1 X_12_11 + 1 X_13_11 + 1 X_14_11
  = 1
 out_12:
  + 1 X_12_0 + 1 X_12_1 + 1 X_12_2 + 1 X_12_3 + 1 X_12_4 + 1 X_12_5 + 1 X_12_6 + 1 X_12_7
  + 1 X_12_8 + 1 X_12_9 + 1 X_12_10 + 1 X_12_11 + 1 X_12_13 + 1 X_12_14
  = 1
 in_12:
  + 1 X_0_12 + 1 X_1_12 + 1 X_2_12 + 1 X_3_12 + 1 X_4_12 + 1 X_5_12 + 1 X_6_12 + 1 X_7_12
  + 1 X_8_12 + 1 X_9_12 + 1 X_10_12 + 1 X_11_12 + 1 X_13_12 + 1 X_14_12
  = 1
 out_13:
  + 1 X_13_0 + 1 X_13_1 + 1 X_13_2 + 1 X_13_3 + 1 X_13_4 + 1 X_13_5 + 1 X_13_6 + 1 X_13_7
  + 1 X_13_8 + 1 X_13_9 + 1 X_13_10 + 1 X_13_11 + 1 X_13_12 + 1 X_13_14
  = 1
 in_13:
  + 1 X_0_13 + 1 X_1_13 + 1 X_2_13 + 1 X_3_13 + 1 X_4_13 + 1 X_5_13 + 1 X_6_13 + 1 X_7_13
  + 1 X_8_13 + 1 X_9_13 + 1 X_10_13 + 1 X_11_13 + 1 X_12_13 + 1 X_14_13
  = 1
 out_14:
  + 1 X_14_0 + 1 X_14_1 + 1 X_14_2 + 1 X_14_3 + 1 X_14_4 + 1 X_14_5 + 1 X_14_6 + 1 X_14_7
  + 1 X_14_8 + 1 X_14_9 + 1 X_14_10 + 1 X_14_11 + 1 X_14_12 + 1 X_14_13
  = 1
 in_14:
  + 1 X_0_14 + 1 X_1_14 + 1 X_2_14 + 1 X_3_14 + 1 X_4_14 + 1 X_5_14 + 1 X_6_14 + 1 X_7_14
  + 1 X_8_14 + 1 X_9_14 + 1 X_10_14 + 1 X_11_14 + 1 X_12_14 + 1 X_13_14
  = 1
 mtz_1_2:
  + 1 U1 - 1 U2 + 14 X_1_2
  <= 13
 mtz_1_3:
  + 1 U1 - 1 U3 + 14 X_1_3
  <= 13
 mtz_1_4:
  + 1 U1 - 1 U4 + 14 X_1_4
  <= 13
 mtz_1_5:
  + 1 U1 - 1 U5 + 14 X_1_5
  <= 13
 mtz_1_6:
  + 1 U1 - 1 U6 + 14 X_1_6
  <= 13
 mtz_1_7:
  + 1 U1 - 1 U7 + 14 X_1_7
  <= 13
 mtz_1_8:
  + 1 U1 - 1 U8 + 14 X_1_8
  <= 13
 mtz_1_9:
  + 1 U1 - 1 U9 + 14 X_1_9
  <= 13
 mtz_1_10:
  + 1 U1 - 1 U10 + 14 X_1_10
  <= 13
 mtz_1_11:
  + 1 U1 - 1 U11 + 14 X_1_11
  <= 13
 mtz_1_12:
  + 1 U1 - 1 U12 + 14 X_1_12
  <= 13
 mtz_1_13:
  + 1 U1 - 1 U13 + 14 X_1_13
  <= 13
 mtz_1_14:
  + 1 U1 - 1 U14 + 14 X_1_14
  <= 13
 mtz_2_1:
  + 1 U2 - 1 U1 + 14 X_2_1
  <= 13
 mtz_2_3:
  + 1 U2 - 1 U3 + 14 X_2_3
  <= 13
 mtz_2_4:
  + 1 U2 - 1 U4 + 14 X_2_4
  <= 13
 mtz_2_5:
  + 1 U2 - 1 U5 + 14 X_2_5
  <= 13
 mtz_2_6:
  + 1 U2 - 1 U6 + 14 X_2_6
  <= 13
 mtz_2_7:
  + 1 U2 - 1 U7 + 14 X_2_7
  <= 13
 mtz_2_8:
  + 1 U2 - 1 U8 + 14 X_2_8
  <= 13
 mtz_2_9:
  + 1 U2 - 1 U9 + 14 X_2_9
  <= 13
 mtz_2_10:
  + 1 U2 - 1 U10 + 14 X_2_10
  <= 13
 mtz_2_11:
  + 1 U2 - 1 U11 + 14 X_2_11
  <= 13
 mtz_2_12:
  + 1 U2 - 1 U12 + 14 X_2_12
  <= 13
 mtz_2_13:
  + 1 U2 - 1 U13 + 14 X_2_13
  <= 13
 mtz_2_14:
  + 1 U2 - 1 U14 + 14 X_2_14
  <= 13
 mtz_3_1:
  + 1 U3 - 1 U1 + 14 X_3_1
  <= 13
 mtz_3_2:
  + 1 U3 - 1 U2 + 14 X_3_2
  <= 13
 mtz_3_4:
  + 1 U3 - 1 U4 + 14 X_3_4
  <= 13
 mtz_3_5:
  + 1 U3 - 1 U5 + 14 X_3_5
  <= 13
 mtz_3_6:
  + 1 U3 - 1 U6 + 14 X_3_6
  <= 13
 mtz_3_7:
  + 1 U3 - 1 U7 + 14 X_3_7
  <= 13
 mtz_3_8:
  + 1 U3 - 1 U8 + 14 X_3_8
  <= 13
 mtz_3_9:
  + 1 U3 - 1 U9 + 14 X_3_9
  <= 13
 mtz_3_10:
  + 1 U3 - 1 U10 + 14 X_3_10
  <= 13
 mtz_3_11:
  + 1 U3 - 1 U11 + 14 X_3_11
  <= 13
 mtz_3_12:
  + 1 U3 - 1 U12 + 14 X_3_12
  <= 13
 mtz_3_13:
  + 1 U3 - 1 U13 + 14 X_3_13
  <= 13
 mtz_3_14:
  + 1 U3 - 1 U14 + 14 X_3_14
  <= 13
 mtz_4_1:
  + 1 U4 - 1 U1 + 14 X_4_1
  <= 13
 mtz_4_2:
  + 1 U4 - 1 U2 + 14 X_4_2
  <= 13
 mtz_4_3:
  + 1 U4 - 1 U3 + 14 X_4_3
  <= 13
 mtz_4_5:
  + 1 U4 - 1 U5 + 14 X_4_5
  <= 13
 mtz_4_6:
  + 1 U4 - 1 U6 + 14 X_4_6
  <= 13
 mtz_4_7:
  + 1 U4 - 1 U7 + 14 X_4_7
  <= 13
 mtz_4_8:
  + 1 U4 - 1 U8 + 14 X_4_8
  <= 13
 mtz_4_9:
  + 1 U4 - 1 U9 + 14 X_4_9
  <= 13
 mtz_4_10:
  + 1 U4 - 1 U10 + 14 X_4_10
  <= 13
 mtz_4_11:
  + 1 U4 - 1 U11 + 14 X_4_11
  <= 13
 mtz_4_12:
  + 1 U4 - 1 U12 + 14 X_4_12
  <= 13
 mtz_4_13:
  + 1 U4 - 1 U13 + 14 X_4_13
  <= 13
 mtz_4_14:
  + 1 U4 - 1 U14 + 14 X_4_14
  <= 13
 mtz_5_1:
  + 1 U5 - 1 U1 + 14 X_5_1
  <= 13
 mtz_5_2:
  + 1 U5 - 1 U2 + 14 X_5_2
  <= 13
 mtz_5_3:
  + 1 U5 - 1 U3 + 14 X_5_3
  <= 13
 mtz_5_4:
  + 1 U5 - 1 U4 + 14 X_5_4
  <= 13
 mtz_5_6:
  + 1 U5 - 1 U6 + 14 X_5_6
  <= 13
 mtz_5_7:
  + 1 U5 - 1 U7 + 14 X_5_7
  <= 13
 mtz_5_8:
  + 1 U5 - 1 U8 + 14 X_5_8
  <= 13
 mtz_5_9:
  + 1 U5 - 1 U9 + 14 X_5_9
  <= 13
 mtz_5_10:
  + 1 U5 - 1 U10 + 14 X_5_10
  <= 13
 mtz_5_11:
  + 1 U5 - 1 U11 + 14 X_5_11
  <= 13
 mtz_5_12:
  + 1 U5 - 1 U12 + 14 X_5_12
  <= 13
 mtz_5_13:
  + 1 U5 - 1 U13 + 14 X_5_13
  <= 13
 mtz_5_14:
  + 1 U5 - 1 U14 + 14 X_5_14
  <= 13
 mtz_6_1:
  + 1 U6 - 1 U1 + 14 X_6_1
  <= 13
 mtz_6_2:
  + 1 U6 - 1 U2 + 14 X_6_2
  <= 13
 mtz_6_3:
  + 1 U6 - 1 U3 + 14 X_6_3
  <= 13
 mtz_6_4:
  + 1 U6 - 1 U4 + 14 X_6_4
  <= 13
 mtz_6_5:
  + 1 U6 - 1 U5 + 14 X_6_5
  <= 13
 mtz_6_7:
  + 1 U6 - 1 U7 + 14 X_6_7
  <= 13
 mtz_6_8:
  + 1 U6 - 1 U8 + 14 X_6_8
  <= 13
 mtz_6_9:
  + 1 U6 - 1 U9 + 14 X_6_9
  <= 13
 mtz_6_10:
  + 1 U6 - 1 U10 + 14 X_6_10
  <= 13
 mtz_6_11:
  + 1 U6 - 1 U11 + 14 X_6_11
  <= 13
 mtz_6_12:
  + 1 U6 - 1 U12 + 14 X_6_12
  <= 13
 mtz_6_13:
  + 1 U6 - 1 U13 + 14 X_6_13
  <= 13
 mtz_6_14:
  + 1 U6 - 1 U14 + 14 X_6_14
  <= 13
 mtz_7_1:
  + 1 U7 - 1 U1 + 14 X_7_1
  <= 13
 mtz_7_2:
  + 1 U7 - 1 U2 + 14 X_7_2
  <= 13
 mtz_7_3:
  + 1 U7 - 1 U3 + 14 X_7_3
  <= 13
 mtz_7_4:
  + 1 U7 - 1 U4 + 14 X_7_4
  <= 13
 mtz_7_5:
  + 1 U7 - 1 U5 + 14 X_7_5
  <= 13
 mtz_7_6:
  + 1 U7 - 1 U6 + 14 X_7_6
  <= 13
 mtz_7_8:
  + 1 U7 - 1 U8 + 14 X_7_8
  <= 13
 mtz_7_9:
  + 1 U7 - 1 U9 + 14 X_7_9
  <= 13
 mtz_7_10:
  + 1 U7 - 1 U10 + 14 X_7_10
  <= 13
 mtz_7_11:
  + 1 U7 - 1 U11 + 14 X_7_11
  <= 13
 mtz_7_12:
  + 1 U7 - 1 U12 + 14 X_7_12
  <= 13
 mtz_7_13:
  + 1 U7 - 1 U13 + 14 X_7_13
  <= 13
 mtz_7_14:
  + 1 U7 - 1 U14 + 14 X_7_14
  <= 13
 mtz_8_1:
  + 1 U8 - 1 U1 + 14 X_8_1
  <= 13
 mtz_8_2:
  + 1 U8 - 1 U2 + 14 X_8_2
  <= 13
 mtz_8_3:
  + 1 U8 - 1 U3 + 14 X_8_3
  <= 13
 mtz_8_4:
  + 1 U8 - 1 U4 + 14 X_8_4
  <= 13
 mtz_8_5:
  + 1 U8 - 1 U5 + 14 X_8_5
  <= 13
 mtz_8_6:
  + 1 U8 - 1 U6 + 14 X_8_6
  <= 13
 mtz_8_7:
  + 1 U8 - 1 U7 + 14 X_8_7
  <= 13
 mtz_8_9:
  + 1 U8 - 1 U9 + 14 X_8_9
  <= 13
 mtz_8_10:
  + 1 U8 - 1 U10 + 14 X_8_10
  <= 13
 mtz_8_11:
  + 1 U8 - 1 U11 + 14 X_8_11
  <= 13
 mtz_8_12:
  + 1 U8 - 1 U12 + 14 X_8_12
  <= 13
 mtz_8_13:
  + 1 U8 - 1 U13 + 14 X_8_13
  <= 13
 mtz_8_14:
  + 1 U8 - 1 U14 + 14 X_8_14
  <= 13
 mtz_9_1:
  + 1 U9 - 1 U1 + 14 X_9_1
  <= 13
 mtz_9_2:
  + 1 U9 - 1 U2 + 14 X_9_2
  <= 13
 mtz_9_3:
  + 1 U9 - 1 U3 + 14 X_9_3
  <= 13
 mtz_9_4:
  + 1 U9 - 1 U4 + 14 X_9_4
  <= 13
 mtz_9_5:
  + 1 U9 - 1 U5 + 14 X_9_5
  <= 13
 mtz_9_6:
  + 1 U9 - 1 U6 + 14 X_9_6
  <= 13
 mtz_9_7:
  + 1 U9 - 1 U7 + 14 X_9_7
  <= 13
 mtz_9_8:
  + 1 U9 - 1 U8 + 14 X_9_8
  <= 13
 mtz_9_10:
  + 1 U9 - 1 U10 + 14 X_9_10
  <= 13
 mtz_9_11:
  + 1 U9 - 1 U11 + 14 X_9_11
  <= 13
 mtz_9_12:
  + 1 U9 - 1 U12 + 14 X_9_12
  <= 13
 mtz_9_13:
  + 1 U9 - 1 U13 + 14 X_9_13
  <= 13
 mtz_9_14:
  + 1 U9 - 1 U14 + 14 X_9_14
  <= 13
 mtz_10_1:
  + 1 U10 - 1 U1 + 14 X_10_1
  <= 13
 mtz_10_2:
  + 1 U10 - 1 U2 + 14 X_10_2
  <= 13
 mtz_10_3:
  + 1 U10 - 1 U3 + 14 X_10_3
  <= 13
 mtz_10_4:
  + 1 U10 - 1 U4 + 14 X_10_4
  <= 13
 mtz_10_5:
  + 1 U10 - 1 U5 + 14 X_10_5
  <= 13
 mtz_10_6:
  + 1 U10 - 1 U6 + 14 X_10_6
  <= 13
 mtz_10_7:
  + 1 U10 - 1 U7 + 14 X_10_7
  <= 13
 mtz_10_8:
  + 1 U10 - 1 U8 + 14 X_10_8
  <= 13
 mtz_10_9:
  + 1 U10 - 1 U9 + 14 X_10_9
  <= 13
 mtz_10_11:
  + 1 U10 - 1 U11 + 14 X_10_11
  <= 13
 mtz_10_12:
  + 1 U10 - 1 U12 + 14 X_10_12
  <= 13
 mtz_10_13:
  + 1 U10 - 1 U13 + 14 X_10_13
  <= 13
 mtz_10_14:
  + 1 U10 - 1 U14 + 14 X_10_14
  <= 13
 mtz_11_1:
  + 1 U11 - 1 U1 + 14 X_11_1
  <= 13
 mtz_11_2:
  + 1 U11 - 1 U2 + 14 X_11_2
  <= 13
 mtz_11_3:
  + 1 U11 - 1 U3 + 14 X_11_3
  <= 13
 mtz_11_4:
  + 1 U11 - 1 U4 + 14 X_11_4
  <= 13
 mtz_11_5:
  + 1 U11 - 1 U5 + 14 X_11_5
  <= 13
 mtz_11_6:
  + 1 U11 - 1 U6 + 14 X_11_6
  <= 13
 mtz_11_7:
  + 1 U11 - 1 U7 + 14 X_11_7
  <= 13
 mtz_11_8:
  + 1 U11 - 1 U8 + 14 X_11_8
  <= 13
 mtz_11_9:
  + 1 U11 - 1 U9 + 14 X_11_9
  <= 13
 mtz_11_10:
  + 1 U11 - 1 U10 + 14 X_11_10
  <= 13
 mtz_11_12:
  + 1 U11 - 1 U12 + 14 X_11_12
  <= 13
 mtz_11_13:
  + 1 U11 - 1 U13 + 14 X_11_13
  <= 13
 mtz_11_14:
  + 1 U11 - 1 U14 + 14 X_11_14
  <= 13
 mtz_12_1:
  + 1 U12 - 1 U1 + 14 X_12_1
  <= 13
 mtz_12_2:
  + 1 U12 - 1 U2 + 14 X_12_2
  <= 13
 mtz_12_3:
  + 1 U12 - 1 U3 + 14 X_12_3
  <= 13
 mtz_12_4:
  + 1 U12 - 1 U4 + 14 X_12_4
  <= 13
 mtz_12_5:
  + 1 U12 - 1 U5 + 14 X_12_5
  <= 13
 mtz_12_6:
  + 1 U12 - 1 U6 + 14 X_12_6
  <= 13
 mtz_12_7:
  + 1 U12 - 1 U7 + 14 X_12_7
  <= 13
 mtz_12_8:
  + 1 U12 - 1 U8 + 14 X_12_8
  <= 13
 mtz_12_9:
  + 1 U12 - 1 U9 + 14 X_12_9
  <= 13
 mtz_12_10:
  + 1 U12 - 1 U10 + 14 X_12_10
  <= 13
 mtz_12_11:
  + 1 U12 - 1 U11 + 14 X_12_11
  <= 13
 mtz_12_13:
  + 1 U12 - 1 U13 + 14 X_12_13
  <= 13
 mtz_12_14:
  + 1 U12 - 1 U14 + 14 X_12_14
  <= 13
 mtz_13_1:
  + 1 U13 - 1 U1 + 14 X_13_1
  <= 13
 mtz_13_2:
  + 1 U13 - 1 U2 + 14 X_13_2
  <= 13
 mtz_13_3:
  + 1 U13 - 1 U3 + 14 X_13_3
  <= 13
 mtz_13_4:
  + 1 U13 - 1 U4 + 14 X_13_4
  <= 13
 mtz_13_5:
  + 1 U13 - 1 U5 + 14 X_13_5
  <= 13
 mtz_13_6:
  + 1 U13 - 1 U6 + 14 X_13_6
  <= 13
 mtz_13_7:
  + 1 U13 - 1 U7 + 14 X_13_7
  <= 13
 mtz_13_8:
  + 1 U13 - 1 U8 + 14 X_13_8
  <= 13
 mtz_13_9:
  + 1 U13 - 1 U9 + 14 X_13_9
  <= 13
 mtz_13_10:
  + 1 U13 - 1 U10 + 14 X_13_10
  <= 13
 mtz_13_11:
  + 1 U13 - 1 U11 + 14 X_13_11
  <= 13
 mtz_13_12:
  + 1 U13 - 1 U12 + 14 X_13_12
  <= 13
 mtz_13_14:
  + 1 U13 - 1 U14 + 14 X_13_14
  <= 13
 mtz_14_1:
  + 1 U14 - 1 U1 + 14 X_14_1
  <= 13
 mtz_14_2:
  + 1 U14 - 1 U2 + 14 X_14_2
  <= 13
 mtz_14_3:
  + 1 U14 - 1 U3 + 14 X_14_3
  <= 13
 mtz_14_4:
  + 1 U14 - 1 U4 + 14 X_14_4
  <= 13
 mtz_14_5:
  + 1 U14 - 1 U5 + 14 X_14_5
  <= 13
 mtz_14_6:
  + 1 U14 - 1 U6 + 14 X_14_6
  <= 13
 mtz_14_7:
  + 1 U14 - 1 U7 + 14 X_14_7
  <= 13
 mtz_14_8:
  + 1 U14 - 1 U8 + 14 X_14_8
  <= 13
 mtz_14_9:
  + 1 U14 - 1 U9 + 14 X_14_9
  <= 13
 mtz_14_10:
  + 1 U14 - 1 U10 + 14 X_14_10
  <= 13
 mtz_14_11:
  + 1 U14 - 1 U11 + 14 X_14_11
  <= 13
 mtz_14_12:
  + 1 U14 - 1 U12 + 14 X_14_12
  <= 13
 mtz_14_13:
  + 1 U14 - 1 U13 + 14 X_14_13
  <= 13
 obj1:
  + 579 X_0_1 + 574 X_0_2 + 427 X_0_3 + 462 X_0_4 + 302 X_0_5 + 237 X_0_6 + 529 X_0_7 + 558 X_0_8
  + 409 X_0_9 + 505 X_0_10 + 338 X_0_11 + 510 X_0_12 + 406 X_0_13 + 420 X_0_14 + 579 X_1_0 + 319 X_1_2
  + 980 X_1_3 + 171 X_1_4 + 486 X_1_5 + 407 X_1_6 + 55 X_1_7 + 672 X_1_8 + 605 X_1_9 + 911 X_1_10
  + 644 X_1_11 + 287 X_1_12 + 493 X_1_13 + 961 X_1_14 + 574 X_2_0 + 319 X_2_1 + 1000 X_2_3 + 199 X_2_4
  + 325 X_2_5 + 337 X_2_6 + 286 X_2_7 + 896 X_2_8 + 789 X_2_9 + 1033 X_2_10 + 788 X_2_11 + 68 X_2_12
  + 265 X_2_13 + 994 X_2_14 + 427 X_3_0 + 980 X_3_1 + 1000 X_3_2 + 883 X_3_4 + 706 X_3_5 + 663 X_3_6
  + 935 X_3_7 + 645 X_3_8 + 537 X_3_9 + 319 X_3_10 + 435 X_3_11 + 937 X_3_12 + 806 X_3_13 + 39 X_3_14
  + 462 X_4_0 + 171 X_4_1 + 199 X_4_2 + 883 X_4_3 + 317 X_4_5 + 254 X_4_6 + 119 X_4_7 + 701 X_4_8
  + 601 X_4_9 + 869 X_4_10 + 612 X_4_11 + 142 X_4_12 + 322 X_4_13 + 870 X_4_14 + 302 X_5_0 + 486 X_5_1
  + 325 X_5_2 + 706 X_5_3 + 317 X_5_4 + 123 X_5_6 + 431 X_5_7 + 786 X_5_8 + 647 X_5_9 + 806 X_5_10
  + 606 X_5_11 + 278 X_5_12 + 104 X_5_13 + 706 X_5_14 + 237 X_6_0 + 407 X_6_1 + 337 X_6_2 + 663 X_6_3
  + 254 X_6_4 + 123 X_6_5 + 352 X_6_7 + 667 X_6_8 + 532 X_6_9 + 719 X_6_10 + 500 X_6_11 + 274 X_6_12
  + 207 X_6_13 + 657 X_6_14 + 529 X_7_0 + 55 X_7_1 + 286 X_7_2 + 935 X_7_3 + 119 X_7_4 + 431 X_7_5
  + 352 X_7_6 + 661 X_7_8 + 583 X_7_9 + 880 X_7_10 + 614 X_7_11 + 246 X_7_12 + 441 X_7_13 + 918 X_7_14
  + 558 X_8_0 + 672 X_8_1 + 896 X_8_2 + 645 X_8_3 + 701 X_8_4 + 786 X_8_5 + 667 X_8_6 + 661 X_8_7
  + 149 X_8_9 + 382 X_8_10 + 239 X_8_11 + 832 X_8_12 + 874 X_8_13 + 608 X_8_14 + 409 X_9_0 + 605 X_9_1
  + 789 X_9_2 + 537 X_9_3 + 601 X_9_4 + 647 X_9_5 + 532 X_9_6 + 583 X_9_7 + 149 X_9_8 + 331 X_9_10
  + 103 X_9_11 + 722 X_9_12 + 740 X_9_13 + 502 X_9_14 + 505 X_10_0 + 911 X_10_1 + 1033 X_10_2 + 319 X_10_3
  + 869 X_10_4 + 806 X_10_5 + 719 X_10_6 + 880 X_10_7 + 382 X_10_8 + 331 X_10_9 + 267 X_10_11 + 965 X_10_12
  + 909 X_10_13 + 280 X_10_14 + 338 X_11_0 + 644 X_11_1 + 788 X_11_2 + 435 X_11_3 + 612 X_11_4 + 606 X_11_5
  + 500 X_11_6 + 614 X_11_7 + 239 X_11_8 + 103 X_11_9 + 267 X_11_10 + 720 X_11_12 + 704 X_11_13 + 401 X_11_14
  + 510 X_12_0 + 287 X_12_1 + 68 X_12_2 + 937 X_12_3 + 142 X_12_4 + 278 X_12_5 + 274 X_12_6 + 246 X_12_7
  + 832 X_12_8 + 722 X_12_9 + 965 X_12_10 + 720 X_12_11 + 236 X_12_13 + 930 X_12_14 + 406 X_13_0 + 493 X_13_1
  + 265 X_13_2 + 806 X_13_3 + 322 X_13_4 + 104 X_13_5 + 207 X_13_6 + 441 X_13_7 + 874 X_13_8 + 740 X_13_9
  + 909 X_13_10 + 704 X_13_11 + 236 X_13_12 + 808 X_13_14 + 420 X_14_0 + 961 X_14_1 + 994 X_14_2 + 39 X_14_3
  + 870 X_14_4 + 706 X_14_5 + 657 X_14_6 + 918 X_14_7 + 608 X_14_8 + 502 X_14_9 + 280 X_14_10 + 401 X_14_11
  + 930 X_14_12 + 808 X_14_13
  <= 1
 obj2:
  + 431 X_0_1 + 169 X_0_2 + 123 X_0_3 + 469 X_0_4 + 671 X_0_5 + 589 X_0_6 + 743 X_0_7 + 354 X_0_8
  + 723 X_0_9 + 718 X_0_10 + 708 X_0_11 + 170 X_0_12 + 673 X_0_13 + 755 X_0_14 + 431 X_1_0 + 285 X_1_2
  + 543 X_1_3 + 491 X_1_4 + 833 X_1_5 + 769 X_1_6 + 715 X_1_7 + 78 X_1_8 + 871 X_1_9 + 730 X_1_10
  + 982 X_1_11 + 531 X_1_12 + 1018 X_1_13 + 1119 X_1_14 + 169 X_2_0 + 285 X_2_1 + 263 X_2_3 + 360 X_2_4
  + 637 X_2_5 + 560 X_2_6 + 634 X_2_7 + 208 X_2_8 + 684 X_2_9 + 622 X_2_10 + 735 X_2_11 + 246 X_2_12
  + 744 X_2_13 + 841 X_2_14 + 123 X_3_0 + 543 X_3_1 + 263 X_3_2 + 476 X_3_4 + 610 X_3_5 + 528 X_3_6
  + 737 X_3_7 + 465 X_3_8 + 664 X_3_9 + 702 X_3_10 + 611 X_3_11 + 97 X_3_12 + 557 X_3_13 + 635 X_3_14
  + 469 X_4_0 + 491 X_4_1 + 360 X_4_2 + 476 X_4_3 + 352 X_4_5 + 303 X_4_6 + 275 X_4_7 + 447 X_4_8
  + 384 X_4_9 + 262 X_4_10 + 551 X_4_11 + 386 X_4_12 + 654 X_4_13 + 768 X_4_14 + 671 X_5_0 + 833 X_5_1
  + 637 X_5_2 + 610 X_5_3 + 352 X_5_4 + 82 X_5_6 + 331 X_5_7 + 779 X_5_8 + 53 X_5_9 + 264 X_5_10
  + 256 X_5_11 + 517 X_5_12 + 431 X_5_13 + 537 X_5_14 + 589 X_6_0 + 769 X_6_1 + 560 X_6_2 + 528 X_6_3
  + 303 X_6_4 + 82 X_6_5 + 349 X_6_7 + 711 X_6_8 + 136 X_6_9 + 285 X_6_10 + 256 X_6_11 + 434 X_6_12
  + 403 X_6_13 + 515 X_6_14 + 743 X_7_0 + 715 X_7_1 + 634 X_7_2 + 737 X_7_3 + 275 X_7_4 + 331 X_7_5
  + 349 X_7_6 + 688 X_7_8 + 322 X_7_9 + 67 X_7_10 + 588 X_7_11 + 642 X_7_12 + 752 X_7_13 + 863 X_7_14
  + 354 X_8_0 + 78 X_8_1 + 208 X_8_2 + 465 X_8_3 + 447 X_8_4 + 779 X_8_5 + 711 X_8_6 + 688 X_8_7
  + 819 X_8_9 + 697 X_8_10 + 916 X_8_11 + 453 X_8_12 + 944 X_8_13 + 1044 X_8_14 + 723 X_9_0 + 871 X_9_1
  + 684 X_9_2 + 664 X_9_3 + 384 X_9_4 + 53 X_9_5 + 136 X_9_6 + 322 X_9_7 + 819 X_9_8 + 256 X_9_10
  + 277 X_9_11 + 570 X_9_12 + 463 X_9_13 + 566 X_9_14 + 718 X_10_0 + 730 X_10_1 + 622 X_10_2 + 702 X_10_3
  + 262 X_10_4 + 264 X_10_5 + 285 X_10_6 + 67 X_10_7 + 697 X_10_8 + 256 X_10_9 + 520 X_10_11 + 605 X_10_12
  + 686 X_10_13 + 797 X_10_14 + 708 X_11_0 + 982 X_11_1 + 735 X_11_2 + 611 X_11_3 + 551 X_11_4 + 256 X_11_5
  + 256 X_11_6 + 588 X_11_7 + 916 X_11_8 + 277 X_11_9 + 520 X_11_10 + 538 X_11_12 + 198 X_11_13 + 290 X_11_14
  + 170 X_12_0 + 531 X_12_1 + 246 X_12_2 + 97 X_12_3 + 386 X_12_4 + 517 X_12_5 + 434 X_12_6 + 642 X_12_7
  + 453 X_12_8 + 570 X_12_9 + 605 X_12_10 + 538 X_12_11 + 511 X_12_13 + 601 X_12_14 + 673 X_13_0 + 1018 X_13_1
  + 744 X_13_2 + 557 X_13_3 + 654 X_13_4 + 431 X_13_5 + 403 X_13_6 + 752 X_13_7 + 944 X_13_8 + 463 X_13_9
  + 686 X_13_10 + 198 X_13_11 + 511 X_13_12 + 114 X_13_14 + 755 X_14_0 + 1119 X_14_1 + 841 X_14_2 + 635 X_14_3
  + 768 X_14_4 + 537 X_14_5 + 515 X_14_6 + 863 X_14_7 + 1044 X_14_8 + 566 X_14_9 + 797 X_14_10 + 290 X_14_11
  + 601 X_14_12 + 114 X_14_13
  <= 2
 obj3:
  + 756 X_0_1 + 307 X_0_2 + 681 X_0_3 + 255 X_0_4 + 661 X_0_5 + 460 X_0_6 + 66 X_0_7 + 1145 X_0_8
  + 189 X_0_9 + 1137 X_0_10 + 436 X_0_11 + 765 X_0_12 + 316 X_0_13 + 824 X_0_14 + 756 X_1_0 + 533 X_1_2
  + 140 X_1_3 + 503 X_1_4 + 603 X_1_5 + 649 X_1_6 + 695 X_1_7 + 472 X_1_8 + 894 X_1_9 + 458 X_1_10
  + 395 X_1_11 + 159 X_1_12 + 441 X_1_13 + 742 X_1_14 + 307 X_2_0 + 533 X_2_1 + 509 X_2_3 + 142 X_2_4
  + 702 X_2_5 + 568 X_2_6 + 242 X_2_7 + 983 X_2_8 + 493 X_2_9 + 971 X_2_10 + 148 X_2_11 + 598 X_2_12
  + 158 X_2_13 + 882 X_2_14 + 681 X_3_0 + 140 X_3_1 + 509 X_3_2 + 443 X_3_4 + 462 X_3_5 + 515 X_3_6
  + 626 X_3_7 + 475 X_3_8 + 800 X_3_9 + 465 X_3_10 + 394 X_3_11 + 89 X_3_12 + 384 X_3_13 + 606 X_3_14
  + 255 X_4_0 + 503 X_4_1 + 142 X_4_2 + 443 X_4_3 + 564 X_4_5 + 425 X_4_6 + 191 X_4_7 + 917 X_4_8
  + 418 X_4_9 + 908 X_4_10 + 204 X_4_11 + 530 X_4_12 + 62 X_4_13 + 744 X_4_14 + 661 X_5_0 + 603 X_5_1
  + 702 X_5_2 + 462 X_5_3 + 564 X_5_4 + 218 X_5_6 + 644 X_5_7 + 694 X_5_8 + 664 X_5_9 + 696 X_5_10
  + 679 X_5_11 + 472 X_5_12 + 546 X_5_13 + 180 X_5_14 + 460 X_6_0 + 649 X_6_1 + 568 X_6_2 + 515 X_6_3
  + 425 X_6_4 + 218 X_6_5 + 454 X_6_7 + 860 X_6_8 + 446 X_6_9 + 859 X_6_10 + 589 X_6_11 + 560 X_6_12
  + 429 X_6_13 + 365 X_6_14 + 66 X_7_0 + 695 X_7_1 + 242 X_7_2 + 626 X_7_3 + 191 X_7_4 + 644 X_7_5
  + 454 X_7_6 + 1094 X_7_8 + 251 X_7_9 + 1086 X_7_10 + 370 X_7_11 + 711 X_7_12 + 253 X_7_13 + 813 X_7_14
  + 1145 X_8_0 + 472 X_8_1 + 983 X_8_2 + 475 X_8_3 + 917 X_8_4 + 694 X_8_5 + 860 X_8_6 + 1094 X_8_7
  + 1239 X_8_9 + 17 X_8_10 + 857 X_8_11 + 387 X_8_12 + 859 X_8_13 + 727 X_8_14 + 189 X_9_0 + 894 X_9_1
  + 493 X_9_2 + 800 X_9_3 + 418 X_9_4 + 664 X_9_5 + 446 X_9_6 + 251 X_9_7 + 1239 X_9_8 + 1234 X_9_10
  + 614 X_9_11 + 876 X_9_12 + 474 X_9_13 + 802 X_9_14 + 1137 X_10_0 + 458 X_10_1 + 971 X_10_2 + 465 X_10_3
  + 908 X_10_4 + 696 X_10_5 + 859 X_10_6 + 1086 X_10_7 + 17 X_10_8 + 1234 X_10_9 + 845 X_10_11 + 377 X_10_12
  + 849 X_10_13 + 733 X_10_14 + 436 X_11_0 + 395 X_11_1 + 148 X_11_2 + 394 X_11_3 + 204 X_11_4 + 679 X_11_5
  + 589 X_11_6 + 370 X_11_7 + 857 X_11_8 + 614 X_11_9 + 845 X_11_10 + 481 X_11_12 + 167 X_11_13 + 857 X_11_14
  + 765 X_12_0 + 159 X_12_1 + 598 X_12_2 + 89 X_12_3 + 530 X_12_4 + 472 X_12_5 + 560 X_12_6 + 711 X_12_7
  + 387 X_12_8 + 876 X_12_9 + 377 X_12_10 + 481 X_12_11 + 472 X_12_13 + 595 X_12_14 + 316 X_13_0 + 441 X_13_1
  + 158 X_13_2 + 384 X_13_3 + 62 X_13_4 + 546 X_13_5 + 429 X_13_6 + 253 X_13_7 + 859 X_13_8 + 474 X_13_9
  + 849 X_13_10 + 167 X_13_11 + 472 X_13_12 + 727 X_13_14 + 824 X_14_0 + 742 X_14_1 + 882 X_14_2 + 606 X_14_3
  + 744 X_14_4 + 180 X_14_5 + 365 X_14_6 + 813 X_14_7 + 727 X_14_8 + 802 X_14_9 + 733 X_14_10 + 857 X_14_11
  + 595 X_14_12 + 727 X_14_13
  <= 3
 obj4:
  + 261 X_0_1 + 506 X_0_2 + 732 X_0_3 + 228 X_0_4 + 432 X_0_5 + 402 X_0_6 + 357 X_0_7 + 217 X_0_8
  + 363 X_0_9 + 314 X_0_10 + 440 X_0_11 + 390 X_0_12 + 425 X_0_13 + 385 X_0_14 + 261 X_1_0 + 273 X_1_2
  + 843 X_1_3 + 488 X_1_4 + 689 X_1_5 + 660 X_1_6 + 599 X_1_7 + 165 X_1_8 + 622 X_1_9 + 503 X_1_10
  + 683 X_1_11 + 548 X_1_12 + 671 X_1_13 + 634 X_1_14 + 506 X_2_0 + 273 X_2_1 + 866 X_2_3 + 717 X_2_4
  + 901 X_2_5 + 874 X_2_6 + 790 X_2_7 + 434 X_2_8 + 841 X_2_9 + 650 X_2_10 + 870 X_2_11 + 821 X_2_12
  + 931 X_2_13 + 891 X_2_14 + 732 X_3_0 + 843 X_3_1 + 866 X_3_2 + 671 X_3_4 + 644 X_3_5 + 642 X_3_6
  + 539 X_3_7 + 919 X_3_8 + 655 X_3_9 + 437 X_3_10 + 537 X_3_11 + 1064 X_3_12 + 901 X_3_13 + 870 X_3_14
  + 228 X_4_0 + 488 X_4_1 + 717 X_4_2 + 671 X_4_3 + 205 X_4_5 + 176 X_4_6 + 166 X_4_7 + 430 X_4_8
  + 135 X_4_9 + 243 X_4_10 + 236 X_4_11 + 398 X_4_12 + 264 X_4_13 + 225 X_4_14 + 432 X_5_0 + 689 X_5_1
  + 901 X_5_2 + 644 X_5_3 + 205 X_5_4 + 29 X_5_6 + 134 X_5_7 + 634 X_5_8 + 70 X_5_9 + 307 X_5_10
  + 107 X_5_11 + 530 X_5_12 + 278 X_5_13 + 258 X_5_14 + 402 X_6_0 + 660 X_6_1 + 874 X_6_2 + 642 X_6_3
  + 176 X_6_4 + 29 X_6_5 + 117 X_6_7 + 606 X_6_8 + 42 X_6_9 + 288 X_6_10 + 110 X_6_11 + 510 X_6_12
  + 269 X_6_13 + 246 X_6_14 + 357 X_7_0 + 599 X_7_1 + 790 X_7_2 + 539 X_7_3 + 166 X_7_4 + 134 X_7_5
  + 117 X_7_6 + 573 X_7_8 + 117 X_7_9 + 173 X_7_10 + 83 X_7_11 + 558 X_7_12 + 361 X_7_13 + 330 X_7_14
  + 217 X_8_0 + 165 X_8_1 + 434 X_8_2 + 919 X_8_3 + 430 X_8_4 + 634 X_8_5 + 606 X_8_6 + 573 X_8_7
  + 564 X_8_9 + 525 X_8_10 + 654 X_8_11 + 390 X_8_12 + 556 X_8_13 + 523 X_8_14 + 363 X_9_0 + 622 X_9_1
  + 841 X_9_2 + 655 X_9_3 + 135 X_9_4 + 70 X_9_5 + 42 X_9_6 + 117 X_9_7 + 564 X_9_8 + 278 X_9_10
  + 138 X_9_11 + 473 X_9_12 + 247 X_9_13 + 219 X_9_14 + 314 X_10_0 + 503 X_10_1 + 650 X_10_2 + 437 X_10_3
  + 243 X_10_4 + 307 X_10_5 + 288 X_10_6 + 173 X_10_7 + 525 X_10_8 + 278 X_10_9 + 236 X_10_11 + 627 X_10_12
  + 498 X_10_13 + 461 X_10_14 + 440 X_11_0 + 683 X_11_1 + 870 X_11_2 + 537 X_11_3 + 236 X_11_4 + 107 X_11_5
  + 110 X_11_6 + 83 X_11_7 + 654 X_11_8 + 138 X_11_9 + 236 X_11_10 + 609 X_11_12 + 379 X_11_13 + 355 X_11_14
  + 390 X_12_0 + 548 X_12_1 + 821 X_12_2 + 1064 X_12_3 + 398 X_12_4 + 530 X_12_5 + 510 X_12_6 + 558 X_12_7
  + 390 X_12_8 + 473 X_12_9 + 627 X_12_10 + 609 X_12_11 + 295 X_12_13 + 289 X_12_14 + 425 X_13_0 + 671 X_13_1
  + 931 X_13_2 + 901 X_13_3 + 264 X_13_4 + 278 X_13_5 + 269 X_13_6 + 361 X_13_7 + 556 X_13_8 + 247 X_13_9
  + 498 X_13_10 + 379 X_13_11 + 295 X_13_12 + 41 X_13_14 + 385 X_14_0 + 634 X_14_1 + 891 X_14_2 + 870 X_14_3
  + 225 X_14_4 + 258 X_14_5 + 246 X_14_6 + 330 X_14_7 + 523 X_14_8 + 219 X_14_9 + 461 X_14_10 + 355 X_14_11
  + 289 X_14_12 + 41 X_14_13
  <= 4
 obj5:
  + 552 X_0_1 + 232 X_0_2 + 442 X_0_3 + 851 X_0_4 + 406 X_0_5 + 340 X_0_6 + 695 X_0_7 + 838 X_0_8
  + 350 X_0_9 + 585 X_0_10 + 706 X_0_11 + 229 X_0_12 + 730 X_0_13 + 644 X_0_14 + 552 X_1_0 + 757 X_1_2
  + 827 X_1_3 + 849 X_1_4 + 487 X_1_5 + 838 X_1_6 + 218 X_1_7 + 588 X_1_8 + 734 X_1_9 + 991 X_1_10
  + 259 X_1_11 + 487 X_1_12 + 902 X_1_13 + 253 X_1_14 + 232 X_2_0 + 757 X_2_1 + 283 X_2_3 + 826 X_2_4
  + 460 X_2_5 + 115 X_2_6 + 867 X_2_7 + 916 X_2_8 + 227 X_2_9 + 387 X_2_10 + 867 X_2_11 + 311 X_2_12
  + 640 X_2_13 + 797 X_2_14 + 442 X_3_0 + 827 X_3_1 + 283 X_3_2 + 595 X_3_4 + 381 X_3_5 + 204 X_3_6
  + 867 X_3_7 + 784 X_3_8 + 99 X_3_9 + 164 X_3_10 + 851 X_3_11 + 344 X_3_12 + 371 X_3_13 + 776 X_3_14
  + 851 X_4_0 + 849 X_4_1 + 826 X_4_2 + 595 X_4_3 + 461 X_4_5 + 787 X_4_6 + 734 X_4_7 + 385 X_4_8
  + 603 X_4_9 + 658 X_4_10 + 690 X_4_11 + 626 X_4_12 + 268 X_4_13 + 637 X_4_14 + 406 X_5_0 + 487 X_5_1
  + 460 X_5_2 + 381 X_5_3 + 461 X_5_4 + 481 X_5_6 + 489 X_5_7 + 455 X_5_8 + 311 X_5_9 + 536 X_5_10
  + 470 X_5_11 + 178 X_5_12 + 426 X_5_13 + 395 X_5_14 + 340 X_6_0 + 838 X_6_1 + 115 X_6_2 + 204 X_6_3
  + 787 X_6_4 + 481 X_6_5 + 927 X_6_7 + 926 X_6_8 + 189 X_6_9 + 278 X_6_10 + 921 X_6_11 + 364 X_6_12
  + 575 X_6_13 + 849 X_6_14 + 695 X_7_0 + 218 X_7_1 + 867 X_7_2 + 867 X_7_3 + 734 X_7_4 + 489 X_7_5
  + 927 X_7_6 + 410 X_7_8 + 786 X_7_9 + 1025 X_7_10 + 50 X_7_11 + 563 X_7_12 + 849 X_7_13 + 102 X_7_14
  + 838 X_8_0 + 588 X_8_1 + 916 X_8_2 + 784 X_8_3 + 385 X_8_4 + 455 X_8_5 + 926 X_8_6 + 410 X_8_7
  + 742 X_8_9 + 907 X_8_10 + 361 X_8_11 + 623 X_8_12 + 593 X_8_13 + 336 X_8_14 + 350 X_9_0 + 734 X_9_1
  + 227 X_9_2 + 99 X_9_3 + 603 X_9_4 + 311 X_9_5 + 189 X_9_6 + 786 X_9_7 + 742 X_9_8 + 261 X_9_10
  + 774 X_9_11 + 248 X_9_12 + 413 X_9_13 + 699 X_9_14 + 585 X_10_0 + 991 X_10_1 + 387 X_10_2 + 164 X_10_3
  + 658 X_10_4 + 536 X_10_5 + 278 X_10_6 + 1025 X_10_7 + 907 X_10_8 + 261 X_10_9 + 1007 X_10_11 + 509 X_10_12
  + 399 X_10_13 + 932 X_10_14 + 706 X_11_0 + 259 X_11_1 + 867 X_11_2 + 851 X_11_3 + 690 X_11_4 + 470 X_11_5
  + 921 X_11_6 + 50 X_11_7 + 361 X_11_8 + 774 X_11_9 + 1007 X_11_10 + 559 X_11_12 + 814 X_11_13 + 74 X_11_14
  + 229 X_12_0 + 487 X_12_1 + 311 X_12_2 + 344 X_12_3 + 626 X_12_4 + 178 X_12_5 + 364 X_12_6 + 563 X_12_7
  + 623 X_12_8 + 248 X_12_9 + 509 X_12_10 + 559 X_12_11 + 535 X_12_13 + 488 X_12_14 + 730 X_13_0 + 902 X_13_1
  + 640 X_13_2 + 371 X_13_3 + 268 X_13_4 + 426 X_13_5 + 575 X_13_6 + 849 X_13_7 + 593 X_13_8 + 413 X_13_9
  + 399 X_13_10 + 814 X_13_11 + 535 X_13_12 + 746 X_13_14 + 644 X_14_0 + 253 X_14_1 + 797 X_14_2 + 776 X_14_3
  + 637 X_14_4 + 395 X_14_5 + 849 X_14_6 + 102 X_14_7 + 336 X_14_8 + 699 X_14_9 + 932 X_14_10 + 74 X_14_11
  + 488 X_14_12 + 746 X_14_13
  <= 5
Bounds
 1 <= U1 <= 14
 1 <= U2 <= 14
 1 <= U3 <= 14
 1 <= U4 <= 14
 1 <= U5 <= 14
 1 <= U6 <= 14
 1 <= U7 <= 14
 1 <= U8 <= 14
 1 <= U9 <= 14
 1 <= U10 <= 14
 1 <= U11 <= 14
 1 <= U12 <= 14
 1 <= U13 <= 14
 1 <= U14 <= 14
Binary
 X_0_1
 X_0_2
 X_0_3
 X_0_4
 X_0_5
 X_0_6
 X_0_7
 X_0_8
 X_0_9
 X_0_10
 X_0_11
 X_0_12
 X_0_13
 X_0_14
 X_1_0
 X_1_2
 X_1_3
 X_1_4
 X_1_5
 X_1_6
 X_1_7
 X_1_8
 X_1_9
 X_1_10
 X_1_11
 X_1_12
 X_1_13
 X_1_14
 X_2_0
 X_2_1
 X_2_3
 X_2_4
 X_2_5
 X_2_6
 X_2_7
 X_2_8
 X_2_9
 X_2_10
 X_2_11
 X_2_12
 X_2_13
 X_2_14
 X_3_0
 X_3_1
 X_3_2
 X_3_4
 X_3_5
 X_3_6
 X_3_7
 X_3_8
 X_3_9
 X_3_10
 X_3_11
 X_3_12
 X_3_13
 X_3_14
 X_4_0
 X_4_1
 X_4_2
 X_4_3
 X_4_5
 X_4_6
 X_4_7
 X_4_8
 X_4_9
 X_4_10
 X_4_11
 X_4_12
 X_4_13
 X_4_14
 X_5_0
 X_5_1
 X_5_2
 X_5_3
 X_5_4
 X_5_6
 X_5_7
 X_5_8
 X_5_9
 X_5_10
 X_5_11
 X_5_12
 X_5_13
 X_5_14
 X_6_0
 X_6_1
 X_6_2
 X_6_3
 X_6_4
 X_6_5
 X_6_7
 X_6_8
 X_6_9
 X_6_10
 X_6_11
 X_6_12
 X_6_13
 X_6_14
 X_7_0
 X_7_1
 X_7_2
 X_7_3
 X_7_4
 X_7_5
 X_7_6
 X_7_8
 X_7_9
 X_7_10
 X_7_11
 X_7_12
 X_7_13
 X_7_14
 X_8_0
 X_8_1
 X_8_2
 X_8_3
 X_8_4
 X_8_5
 X_8_6
 X_8_7
 X_8_9
 X_8_10
 X_8_11
 X_8_12
 X_8_13
 X_8_14
 X_9_0
 X_9_1
 X_9_2
 X_9_3
 X_9_4
 X_9_5
 X_9_6
 X_9_7
 X_9_8
 X_9_10
 X_9_11
 X_9_12
 X_9_13
 X_9_14
 X_10_0
 X_10_1
 X_10_2
 X_10_3
 X_10_4
 X_10_5
 X_10_6
 X_10_7
 X_10_8
 X_10_9
 X_10_11
 X_10_12
 X_10_13
 X_10_14
 X_11_0
 X_11_1
 X_11_2
 X_11_3
 X_11_4
 X_11_5
 X_11_6
 X_11_7
 X_11_8
 X_11_9
 X_11_10
 X_11_12
 X_11_13
 X_11_14
 X_12_0
 X_12_1
 X_12_2
 X_12_3
 X_12_4
 X_12_5
 X_12_6
 X_12_7
 X_12_8
 X_12_9
 X_12_10
 X_12_11
 X_12_13
 X_12_14
 X_13_0
 X_13_1
 X_13_2
 X_13_3
 X_13_4
 X_13_5
 X_13_6
 X_13_7
 X_13_8
 X_13_9
 X_13_10
 X_13_11
 X_13_12
 X_13_14
 X_14_0
 X_14_1
 X_14_2
 X_14_3
 X_14_4
 X_14_5
 X_14_6
 X_14_7
 X_14_8
 X_14_9
 X_14_10
 X_14_11
 X_14_12
 X_14_13
End
